200
1000
300
297
295
293
288
288
287
286
286
286
284
282
281
281
280
280
278
276
273
272
271
270
269
269
267
265
265
264
263
261
260
255
254
254
253
252
251
251
250
248
247
244
238
238
238
237
237
237
235
235
235
231
231
230
230
230
230
230
229
228
228
227
225
225
224
223
223
223
220
220
220
219
217
216
216
216
214
214
213
213
213
207
207
206
205
204
204
203
202
201
201
200
200
199
199
199
197
197
196
196
195
195
195
195
194
194
193
190
189
188
188
187
186
185
182
182
180
173
172
171
170
169
168
168
167
166
163
162
162
161
160
160
158
158
157
156
156
154
153
151
151
150
149
148
147
145
143
143
143
142
141
139
139
138
138
137
136
136
136
132
131
131
131
130
129
128
127
127
126
126
125
124
122
120
120
119
118
116
116
115
115
115
114
113
113
112
112
112
111
111
111
110
110
109
108
107
106
105
105
102
